<?xml version = "1.0" standalone="yes"?>
<!-- This file has been generated by DOcplex version 2.23.222  -->
<CPLEXSolution version="1.0">
 <header
   problemName="CVRP"
   objectiveValue="8897.23"
  />
 <variables>
  <variable name="x_0_1" index="0" value="1.00000"/>
  <variable name="x_0_2" index="1" value="1.00000"/>
  <variable name="x_0_3" index="2" value="1.00000"/>
  <variable name="x_0_6" index="5" value="1.00000"/>
  <variable name="x_0_7" index="6" value="1.00000"/>
  <variable name="x_0_9" index="8" value="1.00000"/>
  <variable name="x_0_10" index="9" value="1.00000"/>
  <variable name="x_0_12" index="11" value="1.00000"/>
  <variable name="x_0_14" index="13" value="1.00000"/>
  <variable name="x_1_0" index="14" value="1.00000"/>
  <variable name="x_2_0" index="28" value="1.00000"/>
  <variable name="x_3_5" index="46" value="1.00000"/>
  <variable name="x_4_0" index="56" value="1.00000"/>
  <variable name="x_5_11" index="80" value="1.00000"/>
  <variable name="x_6_0" index="84" value="1.00000"/>
  <variable name="x_7_8" index="105" value="1.00000"/>
  <variable name="x_8_4" index="116" value="1.00000"/>
  <variable name="x_9_0" index="126" value="1.00000"/>
  <variable name="x_10_0" index="140" value="1.00000"/>
  <variable name="x_11_0" index="154" value="1.00000"/>
  <variable name="x_12_0" index="168" value="1.00000"/>
  <variable name="x_13_0" index="182" value="1.00000"/>
  <variable name="x_14_13" index="209" value="1.00000"/>
  <variable name="u_1" index="210" value="16.00000"/>
  <variable name="u_2" index="211" value="54.00000"/>
  <variable name="u_3" index="212" value="27.00000"/>
  <variable name="u_4" index="213" value="62.00000"/>
  <variable name="u_5" index="214" value="42.00000"/>
  <variable name="u_6" index="215" value="59.00000"/>
  <variable name="u_7" index="216" value="21.00000"/>
  <variable name="u_8" index="217" value="30.00000"/>
  <variable name="u_9" index="218" value="50.00000"/>
  <variable name="u_10" index="219" value="47.00000"/>
  <variable name="u_11" index="220" value="62.00000"/>
  <variable name="u_12" index="221" value="60.00000"/>
  <variable name="u_13" index="222" value="54.00000"/>
  <variable name="u_14" index="223" value="23.00000"/>
 </variables>
</CPLEXSolution>
